NAME : tsp_249_sol.txt
COMMENT : OR-Tools Guided Local Search
TYPE : TOUR
DIMENSION : 50
COST : 5648
STATUS : ROUTING_SUCCESS
GAP : 0.00% (Reference Solution)
TOUR_SECTION
1
13
21
20
48
17
15
40
28
39
33
6
7
41
22
5
25
16
44
29
45
18
14
26
12
31
46
10
43
35
2
37
4
27
30
23
36
50
11
9
34
24
42
8
38
32
47
49
19
3
-1
